language Essence 1.3

letting blksize_delta be
        function(1 --> 10, 2 --> 10, 3 --> 10, 4 --> 10, 5 --> 10, 6 --> 10, 7 --> 10, 8 --> 10, 9 --> 10, 10 --> 10,
                 11 --> 10, 12 --> 10, 13 --> 10, 14 --> 10, 15 --> 10, 16 --> 10, 17 --> 10, 18 --> 10, 19 --> 10,
                 20 --> 10, 21 --> 10, 22 --> 10, 23 --> 10, 24 --> 10, 25 --> 10, 26 --> 10, 27 --> 10, 28 --> 10)
letting maxcars be
        function(1 --> 10, 2 --> 10, 3 --> 10, 4 --> 10, 5 --> 10, 6 --> 10, 7 --> 10, 8 --> 10, 9 --> 10, 10 --> 10,
                 11 --> 10, 12 --> 10, 13 --> 10, 14 --> 10, 15 --> 10, 16 --> 10, 17 --> 10, 18 --> 10, 19 --> 10,
                 20 --> 10, 21 --> 10, 22 --> 10, 23 --> 10, 24 --> 10, 25 --> 10, 26 --> 10, 27 --> 10, 28 --> 10)
letting n_cars be 207
letting n_classes be 29
letting n_options be 28
letting quantity be
        function(1 --> 7, 2 --> 7, 3 --> 7, 4 --> 7, 5 --> 7, 6 --> 7, 7 --> 9, 8 --> 7, 9 --> 7, 10 --> 7, 11 --> 7,
                 12 --> 7, 13 --> 7, 14 --> 8, 15 --> 8, 16 --> 7, 17 --> 7, 18 --> 7, 19 --> 7, 20 --> 7, 21 --> 7,
                 22 --> 7, 23 --> 7, 24 --> 7, 25 --> 7, 26 --> 7, 27 --> 7, 28 --> 7, 29 --> 7)
letting usage be
        relation((1, 1), (1, 22), (2, 1), (2, 9), (2, 10), (2, 15), (2, 26), (3, 17), (3, 25), (4, 11), (4, 14),
                 (4, 17), (4, 18), (4, 21), (4, 24), (5, 2), (5, 10), (5, 22), (6, 13), (6, 16), (7, 1), (7, 2),
                 (7, 18), (7, 26), (8, 19), (9, 3), (9, 10), (9, 16), (9, 19), (9, 22), (10, 11), (10, 12), (10, 15),
                 (11, 5), (11, 9), (11, 12), (11, 17), (11, 22), (12, 13), (12, 25), (12, 28), (13, 3), (13, 23),
                 (13, 24), (14, 28), (15, 1), (16, 2), (16, 10), (16, 19), (16, 21), (17, 1), (17, 4), (17, 5), (17, 8),
                 (17, 19), (17, 26), (17, 27), (18, 17), (19, 1), (19, 9), (19, 27), (20, 7), (21, 4), (21, 25),
                 (22, 2), (22, 16), (22, 28), (23, 6), (23, 8), (23, 10), (23, 12), (23, 15), (23, 19), (24, 1),
                 (24, 3), (24, 6), (24, 9), (25, 13), (25, 18), (25, 28), (26, 4), (26, 19), (26, 26), (26, 27),
                 (27, 4), (28, 6), (28, 20), (28, 23), (28, 27), (29, 11), (29, 14))
$ Visualisation for usage
$  1  1
$  1 22
$  2  1
$  2  9
$  2 10
$  2 15
$  2 26
$  3 17
$  3 25
$  4 11
$  4 14
$  4 17
$  4 18
$  4 21
$  4 24
$  5  2
$  5 10
$  5 22
$  6 13
$  6 16
$  7  1
$  7  2
$  7 18
$  7 26
$  8 19
$  9  3
$  9 10
$  9 16
$  9 19
$  9 22
$ 10 11
$ 10 12
$ 10 15
$ 11  5
$ 11  9
$ 11 12
$ 11 17
$ 11 22
$ 12 13
$ 12 25
$ 12 28
$ 13  3
$ 13 23
$ 13 24
$ 14 28
$ 15  1
$ 16  2
$ 16 10
$ 16 19
$ 16 21
$ 17  1
$ 17  4
$ 17  5
$ 17  8
$ 17 19
$ 17 26
$ 17 27
$ 18 17
$ 19  1
$ 19  9
$ 19 27
$ 20  7
$ 21  4
$ 21 25
$ 22  2
$ 22 16
$ 22 28
$ 23  6
$ 23  8
$ 23 10
$ 23 12
$ 23 15
$ 23 19
$ 24  1
$ 24  3
$ 24  6
$ 24  9
$ 25 13
$ 25 18
$ 25 28
$ 26  4
$ 26 19
$ 26 26
$ 26 27
$ 27  4
$ 28  6
$ 28 20
$ 28 23
$ 28 27
$ 29 11
$ 29 14

